language Essence 1.3
letting n_cars be 100
letting n_classes be 19
letting n_options be 5
letting maxcars be function (1 --> 1, 2 --> 2, 3 --> 1, 4 --> 2, 5 --> 1)
letting blksize be function (1 --> 2, 2 --> 3, 3 --> 3, 4 --> 5, 5 --> 5)
letting quantity be function (1 --> 7, 2 --> 9, 3 --> 4, 4 --> 2, 5 --> 6, 6 --> 18, 7 --> 6, 8 --> 6, 9 --> 1, 10 --> 10, 11 --> 2, 12 --> 11, 13 --> 5, 14 --> 1, 15 --> 1, 16 --> 3, 17 --> 3, 18 --> 3, 19 --> 2)
letting usage be relation ((1,1),(2,2),(2,3),(3,4),(4,2),(4,4),(4,5),(5,3),(6,2),(7,2),(7,5),(8,5),(9,1),(9,2),(9,4),(9,5),(10,1),(10,2),(11,1),(11,5),(12,2),(12,4),(13,3),(13,4),(14,2),(14,3),(14,4),(15,2),(15,3),(15,5),(16,1),(16,3),(17,1),(17,2),(17,3),(18,1),(18,2),(18,4),(19,1),(19,2),(19,3),(19,4))

